n_res = 4;
rcap = [7, 10, 42, 39];
rtype = [1, 1, 2, 2];
n_tasks = 14;
modes = [ {1, 2, 3}, {4, 5, 6}, {7, 8, 9}, {10, 11, 12}, {13, 14, 15}, {16, 17, 18}, {19, 20, 21}, {22, 23, 24}, {25, 26, 27}, {28, 29, 30}, {31, 32, 33}, {34, 35, 36}, {37, 38, 39}, {40, 41, 42} ];
succ = [ {10, 13}, {7}, {4, 7, 8}, {5, 6, 9}, {11, 14}, {13, 14}, {10, 11, 14}, {9, 10, 11}, {12, 13}, {12}, {12}, {}, {}, {} ];
n_opt = 42;
dur = [4, 4, 7, 1, 1, 7, 1, 6, 6, 6, 7, 9, 4, 6, 8, 3, 4, 4, 2, 3, 8, 3, 6, 8, 4, 4, 10, 1, 6, 10, 2, 4, 7, 3, 6, 8, 3, 4, 7, 2, 4, 10];
rreq = [|  8,  0,  8,  0,  0,  0,  0,  9,  8,  0,  4,  0,  2,  0,  0,  7,  0,  3,  5,  0,  0, 10,  0,  0,  0, 10,  8,  0,  6,  0,  8,  5,  0,  0,  4,  0, 10,  6,  0,  8,  0,  5
        |  0,  2,  0,  7,  5,  2,  8,  0,  0,  7,  0,  5,  0,  5,  1,  0,  8,  0,  0,  3,  1,  0,  6,  2, 10,  0,  0, 10,  0,  8,  0,  0, 10,  9,  0,  8,  0,  0,  9,  0,  5,  0
        |  0,  0,  3,  0,  0,  5,  0,  0,  8,  9,  0,  0,  3,  3,  0,  0,  0,  4,  2,  0,  2,  0,  8,  0,  0,  9,  8,  0,  0,  0,  6,  2,  0,  0,  9,  0,  0,  4,  0,  7,  7,  6
        |  1,  2,  0,  3,  6,  0, 10,  9,  0,  0,  7,  7,  0,  0,  8,  4,  4,  0,  0,  8,  0,  8,  0,  8,  2,  0,  0,  2,  2,  2,  0,  0,  5, 10,  0,  6,  3,  0,  3,  0,  0,  0 |];
